(set-info :status unsat)
(declare-datatypes ((T 0)) ((
  (f0)
  (f1 (proj0f1 T) (proj1f1 T))
  (f2 (proj0f2 T))
  (f3 (proj0f3 T))
  (f4 (proj0f4 T) (proj1f4 T) (proj2f4 T) (proj3f4 T)))))
(assert (exists ((y13625 T) (y13627 T) (y13621 T) (y13620 T) (y13616 T) (y13617 T) (y13618 T) (y13619 T) (y13622 T) (y13629 T) (y13628 T) (y13630 T) (y13623 T) (y13632 T)) (forall ((x13635 T) (x13639 T) (x13638 T) (x13644 T) (x13640 T) (x13641 T) (x13642 T) (x13643 T)) 
  (or (= y13616 (f2 y13616)) 
    (and (= y13617 (f1 y13618 (f1 x13641 x13641))) (= y13618 x13639) (= y13619 (f4 y13620 x13641 x13641 x13641)) (= y13620 (f1 y13617 x13641))) 
    (and (= y13621 (f3 y13622)) (= y13622 (f3 y13623)) (= y13623 (f2 y13621))) (= x13644 (f2 x13644)) 
    (and (= y13625 (f3 x13643)) (= x13643 (f3 y13627)) (= y13627 (f4 y13625 x13641 x13641 x13641))) 
    (and (= y13628 (f2 y13629)) (= y13629 (f1 y13630 (f3 (f3 (f3 x13641))))) (= y13630 (f1 x13635 x13641)) (= x13635 (f2 y13632)) (= y13632 (f4 y13628 x13641 x13641 x13641))) (= x13640 (f2 (f2 (f3 x13640)))) (= x13638 x13642)))))
(check-sat)
